(set-logic AUFLIA)
(declare-sort N 0)
(declare-fun lt (N N) Bool)
(declare-fun O () N)
(declare-fun d () N)
(declare-fun e () N)
(assert (= O O))
(assert (= d e) )
(assert (not (= (lt O d) (lt O e))))
(check-sat)
